start_domain = 15;
target_domain = 11;
vnflist_size = 3;
vnflist = [10,3,10];
vnf_arcs = [|1,2|2,3|];
proximity_to_source = [0,0,0];
proximity_to_destination = [0,0,0];
n_domain_constraints = 2;
domain_constraints = [|15,1,1,1|15,3,1,1|];
